p cnf 80 775
22 62 1 41 0
22 62 21 61 0
22 62 5 45 0
1 41 21 61 0
1 41 5 45 0
21 61 5 45 0
-22 -1 -21 -5 0
-22 -1 -21 -45 0
-22 -1 -61 -5 0
-22 -1 -61 -45 0
-22 -41 -21 -5 0
-22 -41 -21 -45 0
-22 -41 -61 -5 0
-22 -41 -61 -45 0
-62 -1 -21 -5 0
-62 -1 -21 -45 0
-62 -1 -61 -5 0
-62 -1 -61 -45 0
-62 -41 -21 -5 0
-62 -41 -21 -45 0
-62 -41 -61 -5 0
-62 -41 -61 -45 0
23 63 2 42 0
23 63 22 62 0
23 63 6 46 0
2 42 22 62 0
2 42 6 46 0
22 62 6 46 0
-23 -2 -22 -6 0
-23 -2 -22 -46 0
-23 -2 -62 -6 0
-23 -2 -62 -46 0
-23 -42 -22 -6 0
-23 -42 -22 -46 0
-23 -42 -62 -6 0
-23 -42 -62 -46 0
-63 -2 -22 -6 0
-63 -2 -22 -46 0
-63 -2 -62 -6 0
-63 -2 -62 -46 0
-63 -42 -22 -6 0
-63 -42 -22 -46 0
-63 -42 -62 -6 0
-63 -42 -62 -46 0
24 64 3 43 0
24 64 23 63 0
24 64 7 47 0
3 43 23 63 0
3 43 7 47 0
23 63 7 47 0
-24 -3 -23 -7 0
-24 -3 -23 -47 0
-24 -3 -63 -7 0
-24 -3 -63 -47 0
-24 -43 -23 -7 0
-24 -43 -23 -47 0
-24 -43 -63 -7 0
-24 -43 -63 -47 0
-64 -3 -23 -7 0
-64 -3 -23 -47 0
-64 -3 -63 -7 0
-64 -3 -63 -47 0
-64 -43 -23 -7 0
-64 -43 -23 -47 0
-64 -43 -63 -7 0
-64 -43 -63 -47 0
25 65 4 44 24 64 0
25 65 4 44 8 48 0
25 65 24 64 8 48 0
4 44 24 64 8 48 0
-25 -4 -24 0
-65 -4 -24 0
-25 -4 -64 0
-65 -4 -64 0
-25 -44 -24 0
-65 -44 -24 0
-25 -44 -64 0
-65 -44 -64 0
-25 -4 -8 0
-65 -4 -8 0
-25 -4 -48 0
-65 -4 -48 0
-25 -44 -8 0
-65 -44 -8 0
-25 -44 -48 0
-65 -44 -48 0
-25 -24 -8 0
-65 -24 -8 0
-25 -24 -48 0
-65 -24 -48 0
-25 -64 -8 0
-65 -64 -8 0
-25 -64 -48 0
-65 -64 -48 0
-4 -24 -8 0
-44 -24 -8 0
-4 -24 -48 0
-44 -24 -48 0
-4 -64 -8 0
-44 -64 -8 0
-4 -64 -48 0
-44 -64 -48 0
45 5 49 9 66 26 67 27 0
-27 -5 0
-27 -45 0
-67 -5 0
-67 -45 0
-27 -26 0
-27 -66 0
-67 -26 0
-67 -66 0
-27 -9 0
-27 -49 0
-67 -9 0
-67 -49 0
-5 -26 0
-27 -5 0
-27 -5 0
-27 -5 0
-5 -9 0
-5 -49 0
-45 -9 0
-45 -49 0
-26 -9 0
-26 -49 0
-66 -9 0
-66 -49 0
46 6 50 10 67 27 68 28 0
-28 -6 0
-28 -46 0
-68 -6 0
-68 -46 0
-28 -27 0
-28 -67 0
-68 -27 0
-68 -67 0
-28 -10 0
-28 -50 0
-68 -10 0
-68 -50 0
-6 -27 0
-28 -6 0
-28 -6 0
-28 -6 0
-6 -10 0
-6 -50 0
-46 -10 0
-46 -50 0
-27 -10 0
-27 -50 0
-67 -10 0
-67 -50 0
47 7 51 11 68 28 69 29 0
-29 -7 0
-29 -47 0
-69 -7 0
-69 -47 0
-29 -28 0
-29 -68 0
-69 -28 0
-69 -68 0
-29 -11 0
-29 -51 0
-69 -11 0
-69 -51 0
-7 -28 0
-29 -7 0
-29 -7 0
-29 -7 0
-7 -11 0
-7 -51 0
-47 -11 0
-47 -51 0
-28 -11 0
-28 -51 0
-68 -11 0
-68 -51 0
30 70 8 48 0
30 70 29 69 0
30 70 12 52 0
8 48 29 69 0
8 48 12 52 0
29 69 12 52 0
-30 -8 -29 -12 0
-30 -8 -29 -52 0
-30 -8 -69 -12 0
-30 -8 -69 -52 0
-30 -48 -29 -12 0
-30 -48 -29 -52 0
-30 -48 -69 -12 0
-30 -48 -69 -52 0
-70 -8 -29 -12 0
-70 -8 -29 -52 0
-70 -8 -69 -12 0
-70 -8 -69 -52 0
-70 -48 -29 -12 0
-70 -48 -29 -52 0
-70 -48 -69 -12 0
-70 -48 -69 -52 0
32 72 9 49 31 71 0
32 72 9 49 13 53 0
32 72 31 71 13 53 0
9 49 31 71 13 53 0
-32 -9 -31 0
-72 -9 -31 0
-32 -9 -71 0
-72 -9 -71 0
-32 -49 -31 0
-72 -49 -31 0
-32 -49 -71 0
-72 -49 -71 0
-32 -9 -13 0
-72 -9 -13 0
-32 -9 -53 0
-72 -9 -53 0
-32 -49 -13 0
-72 -49 -13 0
-32 -49 -53 0
-72 -49 -53 0
-32 -31 -13 0
-72 -31 -13 0
-32 -31 -53 0
-72 -31 -53 0
-32 -71 -13 0
-72 -71 -13 0
-32 -71 -53 0
-72 -71 -53 0
-9 -31 -13 0
-49 -31 -13 0
-9 -31 -53 0
-49 -31 -53 0
-9 -71 -13 0
-49 -71 -13 0
-9 -71 -53 0
-49 -71 -53 0
50 10 54 14 72 32 73 33 0
-33 -10 0
-33 -50 0
-73 -10 0
-73 -50 0
-33 -32 0
-33 -72 0
-73 -32 0
-73 -72 0
-33 -14 0
-33 -54 0
-73 -14 0
-73 -54 0
-10 -32 0
-33 -10 0
-33 -10 0
-33 -10 0
-10 -14 0
-10 -54 0
-50 -14 0
-50 -54 0
-32 -14 0
-32 -54 0
-72 -14 0
-72 -54 0
34 74 11 51 0
34 74 33 73 0
34 74 15 55 0
11 51 33 73 0
11 51 15 55 0
33 73 15 55 0
-34 -11 -33 -15 0
-34 -11 -33 -55 0
-34 -11 -73 -15 0
-34 -11 -73 -55 0
-34 -51 -33 -15 0
-34 -51 -33 -55 0
-34 -51 -73 -15 0
-34 -51 -73 -55 0
-74 -11 -33 -15 0
-74 -11 -33 -55 0
-74 -11 -73 -15 0
-74 -11 -73 -55 0
-74 -51 -33 -15 0
-74 -51 -33 -55 0
-74 -51 -73 -15 0
-74 -51 -73 -55 0
52 12 56 16 74 34 75 35 0
-35 -12 0
-35 -52 0
-75 -12 0
-75 -52 0
-35 -34 0
-35 -74 0
-75 -34 0
-75 -74 0
-35 -16 0
-35 -56 0
-75 -16 0
-75 -56 0
-12 -34 0
-35 -12 0
-35 -12 0
-35 -12 0
-12 -16 0
-12 -56 0
-52 -16 0
-52 -56 0
-34 -16 0
-34 -56 0
-74 -16 0
-74 -56 0
37 77 13 53 36 76 0
37 77 13 53 17 57 0
37 77 36 76 17 57 0
13 53 36 76 17 57 0
-37 -13 -36 0
-77 -13 -36 0
-37 -13 -76 0
-77 -13 -76 0
-37 -53 -36 0
-77 -53 -36 0
-37 -53 -76 0
-77 -53 -76 0
-37 -13 -17 0
-77 -13 -17 0
-37 -13 -57 0
-77 -13 -57 0
-37 -53 -17 0
-77 -53 -17 0
-37 -53 -57 0
-77 -53 -57 0
-37 -36 -17 0
-77 -36 -17 0
-37 -36 -57 0
-77 -36 -57 0
-37 -76 -17 0
-77 -76 -17 0
-37 -76 -57 0
-77 -76 -57 0
-13 -36 -17 0
-53 -36 -17 0
-13 -36 -57 0
-53 -36 -57 0
-13 -76 -17 0
-53 -76 -17 0
-13 -76 -57 0
-53 -76 -57 0
38 78 14 54 37 77 0
38 78 14 54 18 58 0
38 78 37 77 18 58 0
14 54 37 77 18 58 0
-38 -14 -37 0
-78 -14 -37 0
-38 -14 -77 0
-78 -14 -77 0
-38 -54 -37 0
-78 -54 -37 0
-38 -54 -77 0
-78 -54 -77 0
-38 -14 -18 0
-78 -14 -18 0
-38 -14 -58 0
-78 -14 -58 0
-38 -54 -18 0
-78 -54 -18 0
-38 -54 -58 0
-78 -54 -58 0
-38 -37 -18 0
-78 -37 -18 0
-38 -37 -58 0
-78 -37 -58 0
-38 -77 -18 0
-78 -77 -18 0
-38 -77 -58 0
-78 -77 -58 0
-14 -37 -18 0
-54 -37 -18 0
-14 -37 -58 0
-54 -37 -58 0
-14 -77 -18 0
-54 -77 -18 0
-14 -77 -58 0
-54 -77 -58 0
39 79 15 55 0
39 79 38 78 0
39 79 19 59 0
15 55 38 78 0
15 55 19 59 0
38 78 19 59 0
-39 -15 -38 -19 0
-39 -15 -38 -59 0
-39 -15 -78 -19 0
-39 -15 -78 -59 0
-39 -55 -38 -19 0
-39 -55 -38 -59 0
-39 -55 -78 -19 0
-39 -55 -78 -59 0
-79 -15 -38 -19 0
-79 -15 -38 -59 0
-79 -15 -78 -19 0
-79 -15 -78 -59 0
-79 -55 -38 -19 0
-79 -55 -38 -59 0
-79 -55 -78 -19 0
-79 -55 -78 -59 0
56 16 60 20 79 39 80 40 0
-40 -16 0
-40 -56 0
-80 -16 0
-80 -56 0
-40 -39 0
-40 -79 0
-80 -39 0
-80 -79 0
-40 -20 0
-40 -60 0
-80 -20 0
-80 -60 0
-16 -39 0
-40 -16 0
-40 -16 0
-40 -16 0
-16 -20 0
-16 -60 0
-56 -20 0
-56 -60 0
-39 -20 0
-39 -60 0
-79 -20 0
-79 -60 0
-41 -61 0
-1 -21 0
-41 -1 0
-61 -21 0
-61 1 0
-41 21 0
-42 -62 0
-42 -1 0
-62 -1 0
-2 -22 0
-2 -41 0
-22 -41 0
-42 -2 0
-62 -22 0
-1 -41 0
-1 2 22 0
-62 2 41 0
-42 41 22 0
-43 -63 0
-43 -2 0
-63 -2 0
-3 -23 0
-3 -42 0
-23 -42 0
-43 -3 0
-63 -23 0
-2 -42 0
-2 3 23 0
-63 3 42 0
-43 42 23 0
-44 -64 0
-44 -3 0
-64 -3 0
-4 -24 0
-4 -43 0
-24 -43 0
-44 -4 0
-64 -24 0
-3 -43 0
-3 4 24 0
-64 4 43 0
-44 43 24 0
-65 -4 0
-25 -44 0
-65 -25 0
-4 -44 0
-4 25 0
-65 44 0
-21 -45 0
-21 -66 0
-45 -66 0
-61 -5 0
-61 -26 0
-5 -26 0
-21 -61 0
-45 -5 0
-66 -26 0
-45 61 26 0
-66 61 5 0
-21 5 26 0
-22 -46 0
-22 -67 0
-22 -5 0
-46 -67 0
-46 -5 0
-67 -5 0
-62 -6 0
-62 -27 0
-62 -45 0
-6 -27 0
-6 -45 0
-27 -45 0
-22 -62 0
-46 -6 0
-67 -27 0
-5 -45 0
-22 6 27 45 0
-46 62 27 45 0
-67 62 6 45 0
-5 62 6 27 0
-23 -47 0
-23 -68 0
-23 -6 0
-47 -68 0
-47 -6 0
-68 -6 0
-63 -7 0
-63 -28 0
-63 -46 0
-7 -28 0
-7 -46 0
-28 -46 0
-23 -63 0
-47 -7 0
-68 -28 0
-6 -46 0
-23 7 28 46 0
-47 63 28 46 0
-68 63 7 46 0
-6 63 7 28 0
-24 -48 0
-24 -69 0
-24 -7 0
-48 -69 0
-48 -7 0
-69 -7 0
-64 -8 0
-64 -29 0
-64 -47 0
-8 -29 0
-8 -47 0
-29 -47 0
-24 -64 0
-48 -8 0
-69 -29 0
-7 -47 0
-24 8 29 47 0
-48 64 29 47 0
-69 64 8 47 0
-7 64 8 29 0
-25 -70 0
-25 -8 0
-70 -8 0
-65 -30 0
-65 -48 0
-30 -48 0
-25 -65 0
-70 -30 0
-8 -48 0
-8 65 30 0
-25 48 30 0
-70 65 48 0
-26 -49 0
-26 -71 0
-49 -71 0
-66 -9 0
-66 -31 0
-9 -31 0
-26 -66 0
-49 -9 0
-71 -31 0
-49 66 31 0
-71 66 9 0
-26 9 31 0
-27 -50 0
-27 -72 0
-27 -9 0
-50 -72 0
-50 -9 0
-72 -9 0
-67 -10 0
-67 -32 0
-67 -49 0
-10 -32 0
-10 -49 0
-32 -49 0
-27 -67 0
-50 -10 0
-72 -32 0
-9 -49 0
-27 10 32 49 0
-50 67 32 49 0
-72 67 10 49 0
-9 67 10 32 0
-28 -51 0
-28 -73 0
-28 -10 0
-51 -73 0
-51 -10 0
-73 -10 0
-68 -11 0
-68 -33 0
-68 -50 0
-11 -33 0
-11 -50 0
-33 -50 0
-28 -68 0
-51 -11 0
-73 -33 0
-10 -50 0
-28 11 33 50 0
-51 68 33 50 0
-73 68 11 50 0
-10 68 11 33 0
-29 -52 0
-29 -74 0
-29 -11 0
-52 -74 0
-52 -11 0
-74 -11 0
-69 -12 0
-69 -34 0
-69 -51 0
-12 -34 0
-12 -51 0
-34 -51 0
-29 -69 0
-52 -12 0
-74 -34 0
-11 -51 0
-29 12 34 51 0
-52 69 34 51 0
-74 69 12 51 0
-11 69 12 34 0
-30 -75 0
-30 -12 0
-75 -12 0
-70 -35 0
-70 -52 0
-35 -52 0
-30 -70 0
-75 -35 0
-12 -52 0
-12 70 35 0
-30 52 35 0
-75 70 52 0
-31 -53 0
-31 -76 0
-53 -76 0
-71 -13 0
-71 -36 0
-13 -36 0
-31 -71 0
-53 -13 0
-76 -36 0
-53 71 36 0
-76 71 13 0
-31 13 36 0
-32 -54 0
-32 -77 0
-32 -13 0
-54 -77 0
-54 -13 0
-77 -13 0
-72 -14 0
-72 -37 0
-72 -53 0
-14 -37 0
-14 -53 0
-37 -53 0
-32 -72 0
-54 -14 0
-77 -37 0
-13 -53 0
-32 14 37 53 0
-54 72 37 53 0
-77 72 14 53 0
-13 72 14 37 0
-33 -55 0
-33 -78 0
-33 -14 0
-55 -78 0
-55 -14 0
-78 -14 0
-73 -15 0
-73 -38 0
-73 -54 0
-15 -38 0
-15 -54 0
-38 -54 0
-33 -73 0
-55 -15 0
-78 -38 0
-14 -54 0
-33 15 38 54 0
-55 73 38 54 0
-78 73 15 54 0
-14 73 15 38 0
-34 -56 0
-34 -79 0
-34 -15 0
-56 -79 0
-56 -15 0
-79 -15 0
-74 -16 0
-74 -39 0
-74 -55 0
-16 -39 0
-16 -55 0
-39 -55 0
-34 -74 0
-56 -16 0
-79 -39 0
-15 -55 0
-34 16 39 55 0
-56 74 39 55 0
-79 74 16 55 0
-15 74 16 39 0
-35 -80 0
-35 -16 0
-80 -16 0
-75 -40 0
-75 -56 0
-40 -56 0
-35 -75 0
-80 -40 0
-16 -56 0
-16 75 40 0
-35 56 40 0
-80 75 56 0
-36 -57 0
-76 -17 0
-36 -76 0
-57 -17 0
-57 76 0
-36 17 0
-37 -58 0
-37 -17 0
-58 -17 0
-77 -18 0
-77 -57 0
-18 -57 0
-37 -77 0
-58 -18 0
-17 -57 0
-58 77 57 0
-37 18 57 0
-17 18 77 0
-38 -59 0
-38 -18 0
-59 -18 0
-78 -19 0
-78 -58 0
-19 -58 0
-38 -78 0
-59 -19 0
-18 -58 0
-59 78 58 0
-38 19 58 0
-18 19 78 0
-39 -60 0
-39 -19 0
-60 -19 0
-79 -20 0
-79 -59 0
-20 -59 0
-39 -79 0
-60 -20 0
-19 -59 0
-60 79 59 0
-39 20 59 0
-19 20 79 0
-40 -20 0
-80 -60 0
-40 -80 0
-20 -60 0
-20 80 0
-40 60 0
-1 2 -3 4 5 -6 7 -8 9 10 11 12 13 14 -15 16 17 18 19 20 21 -22 23 -24 25 26 27 28 29 -30 31 32 -33 34 35 36 37 38 -39 40 41 42 43 44 45 46 47 48 49 50 -51 -52 -53 54 55 56 57 -58 -59 60 -61 62 -63 64 65 -66 67 68 69 70 -71 72 73 74 75 76 -77 78 79 80  0
